/* Objective function */
max: +Zx +Zy;

/* Constraints */
R1: +Xb <= 10;
R2: +Xc <= 10;
R3: +Yb <= 10;
R4: +Yc <= 10;
+Yc -Bc1 -4 Bc2 -8 Bc3 -Bc4 -3 Bc5 -4 Bc6 -5 Bc7 -7 Bc8 -3 Bc9 -10 Bc10 = 0;
+Xc -2 Bc2 -3 Bc3 -4 Bc4 -6 Bc5 -6 Bc6 -6 Bc7 -8 Bc8 -9 Bc9 -9 Bc10 = 0;
+Zx1 +Xb = 0;
+11 Bx1a -Zx1a >= 0;
+11 Bx1b -Zx1b >= 0;
+Zx1 -Zx1a +Zx1b = 0;
+Bx1a +Bx1b = 1;
+Zy1 +Yb = 1;
+11 By1a -Zy1a >= 0;
+11 By1b -Zy1b >= 0;
+Zy1 -Zy1a +Zy1b = 0;
+By1a +By1b = 1;
-Zx -Zy +Zx1a +Zx1b +Zy1a +Zy1b >= 0;
+Zx2 +Xb = 2;
+11 Bx2a -Zx2a >= 0;
+11 Bx2b -Zx2b >= 0;
+Zx2 -Zx2a +Zx2b = 0;
+Bx2a +Bx2b = 1;
+Zy2 +Yb = 4;
+11 By2a -Zy2a >= 0;
+11 By2b -Zy2b >= 0;
+Zy2 -Zy2a +Zy2b = 0;
+By2a +By2b = 1;
-Zx -Zy +Zx2a +Zx2b +Zy2a +Zy2b >= 0;
+Zx3 +Xb = 3;
+11 Bx3a -Zx3a >= 0;
+11 Bx3b -Zx3b >= 0;
+Zx3 -Zx3a +Zx3b = 0;
+Bx3a +Bx3b = 1;
+Zy3 +Yb = 8;
+11 By3a -Zy3a >= 0;
+11 By3b -Zy3b >= 0;
+Zy3 -Zy3a +Zy3b = 0;
+By3a +By3b = 1;
-Zx -Zy +Zx3a +Zx3b +Zy3a +Zy3b >= 0;
+Zx4 +Xb = 4;
+11 Bx4a -Zx4a >= 0;
+11 Bx4b -Zx4b >= 0;
+Zx4 -Zx4a +Zx4b = 0;
+Bx4a +Bx4b = 1;
+Zy4 +Yb = 1;
+11 By4a -Zy4a >= 0;
+11 By4b -Zy4b >= 0;
+Zy4 -Zy4a +Zy4b = 0;
+By4a +By4b = 1;
-Zx -Zy +Zx4a +Zx4b +Zy4a +Zy4b >= 0;
+Zx5 +Xb = 6;
+11 Bx5a -Zx5a >= 0;
+11 Bx5b -Zx5b >= 0;
+Zx5 -Zx5a +Zx5b = 0;
+Bx5a +Bx5b = 1;
+Zy5 +Yb = 3;
+11 By5a -Zy5a >= 0;
+11 By5b -Zy5b >= 0;
+Zy5 -Zy5a +Zy5b = 0;
+By5a +By5b = 1;
-Zx -Zy +Zx5a +Zx5b +Zy5a +Zy5b >= 0;
+Zx6 +Xb = 6;
+11 Bx6a -Zx6a >= 0;
+11 Bx6b -Zx6b >= 0;
+Zx6 -Zx6a +Zx6b = 0;
+Bx6a +Bx6b = 1;
+Zy6 +Yb = 4;
+11 By6a -Zy6a >= 0;
+11 By6b -Zy6b >= 0;
+Zy6 -Zy6a +Zy6b = 0;
+By6a +By6b = 1;
-Zx -Zy +Zx6a +Zx6b +Zy6a +Zy6b >= 0;
+Zx7 +Xb = 6;
+11 Bx7a -Zx7a >= 0;
+11 Bx7b -Zx7b >= 0;
+Zx7 -Zx7a +Zx7b = 0;
+Bx7a +Bx7b = 1;
+Zy7 +Yb = 5;
+11 By7a -Zy7a >= 0;
+11 By7b -Zy7b >= 0;
+Zy7 -Zy7a +Zy7b = 0;
+By7a +By7b = 1;
-Zx -Zy +Zx7a +Zx7b +Zy7a +Zy7b >= 0;
+Zx8 +Xb = 8;
+11 Bx8a -Zx8a >= 0;
+11 Bx8b -Zx8b >= 0;
+Zx8 -Zx8a +Zx8b = 0;
+Bx8a +Bx8b = 1;
+Zy8 +Yb = 7;
+11 By8a -Zy8a >= 0;
+11 By8b -Zy8b >= 0;
+Zy8 -Zy8a +Zy8b = 0;
+By8a +By8b = 1;
-Zx -Zy +Zx8a +Zx8b +Zy8a +Zy8b >= 0;
+Zx9 +Xb = 9;
+11 Bx9a -Zx9a >= 0;
+11 Bx9b -Zx9b >= 0;
+Zx9 -Zx9a +Zx9b = 0;
+Bx9a +Bx9b = 1;
+Zy9 +Yb = 3;
+11 By9a -Zy9a >= 0;
+11 By9b -Zy9b >= 0;
+Zy9 -Zy9a +Zy9b = 0;
+By9a +By9b = 1;
-Zx -Zy +Zx9a +Zx9b +Zy9a +Zy9b >= 0;
+Zx10 +Xb = 9;
+11 Bx10a -Zx10a >= 0;
+11 Bx10b -Zx10b >= 0;
+Zx10 -Zx10a +Zx10b = 0;
+Bx10a +Bx10b = 1;
+Zy10 +Yb = 10;
+11 By10a -Zy10a >= 0;
+11 By10b -Zy10b >= 0;
+Zy10 -Zy10a +Zy10b = 0;
+By10a +By10b = 1;
-Zx -Zy +Zx10a +Zx10b +Zy10a +Zy10b >= 0;
+Bc1 +Bc2 +Bc3 +Bc4 +Bc5 +Bc6 +Bc7 +Bc8 +Bc9 +Bc10 = 1;
+Xb -Xc +dx = 0;
-Zx +dx +20 Bx0 >= 0;
+Zx +dx +20 Bx0 <= 20;
-Zx +dx <= 0;
-Zx -dx <= 0;
+Yb -Yc +dy = 0;
-Zy +dy +20 By0 >= 0;
+Zy +dy +20 By0 <= 20;
-Zy +dy <= 0;
-Zy -dy <= 0;

/* Variable bounds */
Zx1 >= -Inf;
Zy1 >= -Inf;
Zx2 >= -Inf;
Zy2 >= -Inf;
Zx3 >= -Inf;
Zy3 >= -Inf;
Zx4 >= -Inf;
Zy4 >= -Inf;
Zx5 >= -Inf;
Zy5 >= -Inf;
Zx6 >= -Inf;
Zy6 >= -Inf;
Zx7 >= -Inf;
Zy7 >= -Inf;
Zx8 >= -Inf;
Zy8 >= -Inf;
Zx9 >= -Inf;
Zy9 >= -Inf;
Zx10 >= -Inf;
Zy10 >= -Inf;
Bx1a <= 1;
Bx1b <= 1;
By1a <= 1;
By1b <= 1;
Bx2a <= 1;
Bx2b <= 1;
By2a <= 1;
By2b <= 1;
Bx3a <= 1;
Bx3b <= 1;
By3a <= 1;
By3b <= 1;
Bx4a <= 1;
Bx4b <= 1;
By4a <= 1;
By4b <= 1;
Bx5a <= 1;
Bx5b <= 1;
By5a <= 1;
By5b <= 1;
Bx6a <= 1;
Bx6b <= 1;
By6a <= 1;
By6b <= 1;
Bx7a <= 1;
Bx7b <= 1;
By7a <= 1;
By7b <= 1;
Bx8a <= 1;
Bx8b <= 1;
By8a <= 1;
By8b <= 1;
Bx9a <= 1;
Bx9b <= 1;
By9a <= 1;
By9b <= 1;
Bx10a <= 1;
Bx10b <= 1;
By10a <= 1;
By10b <= 1;
dx >= -Inf;
dy >= -Inf;
Bx0 <= 1;
By0 <= 1;
Bc1 <= 1;
Bc2 <= 1;
Bc3 <= 1;
Bc4 <= 1;
Bc5 <= 1;
Bc6 <= 1;
Bc7 <= 1;
Bc8 <= 1;
Bc9 <= 1;
Bc10 <= 1;

/* Integer definitions */
int Bx1a,Bx1b,By1a,By1b,Bx2a,Bx2b,By2a,By2b,Bx3a,Bx3b,By3a,By3b,Bx4a,Bx4b,By4a,By4b,Bx5a,Bx5b,By5a,By5b,Bx6a,Bx6b,By6a,By6b,Bx7a,Bx7b,By7a,By7b,Bx8a,Bx8b,By8a,By8b,Bx9a,Bx9b,By9a,By9b,Bx10a,Bx10b,By10a,By10b,Xc,Yc,Bx0,By0,Bc1,Bc2,Bc3,Bc4,Bc5,Bc6,Bc7,Bc8,Bc9,Bc10;
